NAME : XML100_3144_25
DIMENSION : 101
NB_CLUSTERS : 4
CLUSTERING_ALG : KMedoids
CLUSTERING_PARAMS : k(3)
CLUSTERS
1 0
2 1 3 9 11 13 20 21 23 26 27 30 31 33 34 38 40 45 46 47 49 50 51 56 59 60 69 71 78 82 83 86 87 88 90 94 100
3 2 4 10 12 16 18 37 39 42 48 55 67 73 74 76 79 80 84 85 89 91 92 93 95
4 5 6 7 8 14 15 17 19 22 24 25 28 29 32 35 36 41 43 44 52 53 54 57 58 61 62 63 64 65 66 68 70 72 75 77 81 96 97 98 99
EOF